
(set-logic ALL) 

(declare-datatype MyList ((Nil) (Cons (head Real) (tail MyList)) )) 
(declare-fun l0 () MyList) 
(declare-fun l1 () MyList) 
(declare-fun l2 () MyList) 
(declare-fun l3 () MyList) 
(declare-fun i0 () Real) 
(declare-fun i1 () Real) 
(assert (is-Cons l0) )
(assert (or (is-Cons l3) (is-Nil Nil) (= l1 l2)) )
(assert (is-Nil l3) )
(assert (= l0 Nil) )
(assert (and (= l3 l1) (is-Nil l2) (= l2 l1) (= l2 Nil)) )
(assert (is-Nil Nil) )
(assert (not (= l3 Nil)) )
(assert (or (= l0 Nil) (= l2 Nil) (= l1 l0)) )
(check-sat)
